NAME : prob25c.7095.tour
COMMENT : Cost = 0_7095
COMMENT : Found by LKH [Keld Helsgaun] Sun Sep 17 01:06:29 2017
TYPE : TOUR
DIMENSION : 51
TOUR_SECTION
1
31
29
50
42
28
35
36
27
46
44
30
48
43
39
33
45
40
14
37
5
49
38
21
23
34
6
11
8
12
47
2
32
4
51
19
3
20
22
9
26
10
17
41
13
7
15
25
18
16
24
-1
EOF
